4 18 0 20 6 3 7 3 5 12 2 3 3 20 1 20
7 12 4 1 1 15 5 17 6 10 2 19 3 19 0 2
1 10 3 3 7 8 0 16 6 19 2 6 5 8 4 20
6 8 4 9 5 5 1 10 3 13 0 17 2 11 7 1
0 18 3 4 2 11 5 10 4 15 7 19 1 5 6 16
0 15 5 9 4 4 1 1 3 20 6 13 7 18 2 17
6 10 4 13 7 16 0 1 1 18 2 13 3 7 5 5
2 11 6 7 5 5 1 19 0 10 3 4 4 1 7 7
